db/data/21419973031741184292692987525597440.z3.out
-------------------
2500.240605568
